p cnf 7230 18
4556 -5864 0
4556 -5860 0
4908 -5864 0
-4654 5860 -5864 0
-4556 -4908 -5623 5863 0
4908 -5860 0
-5865 -5866 0
4556 -5862 0
-4556 -5589 5861 0
4654 -5860 0
-5863 5864 0
5589 -5862 0
-5861 5862 0
5623 -5864 0
-5681 5866 0
5681 -5866 0
-5859 5860 0
5859 -5860 0
